c Command line: hgen8 180 40
p cnf 180 279
27 153 51 35 0
119 167 174 104 0
138 10 6 171 0
67 121 28 58 0
165 12 168 46 0
117 137 78 145 0
113 62 159 116 0
177 64 101 95 0
133 69 43 65 0
142 180 123 23 0
161 85 141 55 0
83 77 16 29 0
88 106 178 156 0
146 114 38 151 0
20 22 115 98 0
24 76 32 110 0
56 154 170 72 0
155 176 150 126 0
15 160 134 44 0
109 136 91 54 0
57 41 79 33 0
130 75 163 9 0
30 149 107 87 0
74 92 125 90 0
152 52 3 48 0
99 26 63 173 0
158 1 34 147 0
102 143 128 105 0
45 93 179 39 0
53 21 11 47 0
68 96 40 86 0
2 82 4 131 0
14 49 132 89 0
50 70 94 7 0
25 13 120 61 0
97 172 148 127 0
71 169 66 42 0
-1 -2 0
-1 -3 0
-1 -4 0
-2 -3 0
-2 -4 0
-3 -4 0
-6 -7 0
-6 -9 0
-6 -10 0
-7 -9 0
-7 -10 0
-9 -10 0
-11 -12 0
-11 -13 0
-11 -14 0
-11 -15 0
-12 -13 0
-12 -14 0
-12 -15 0
-13 -14 0
-13 -15 0
-14 -15 0
-16 -20 0
-21 -22 0
-21 -23 0
-21 -24 0
-21 -25 0
-22 -23 0
-22 -24 0
-22 -25 0
-23 -24 0
-23 -25 0
-24 -25 0
-26 -27 0
-26 -28 0
-26 -29 0
-26 -30 0
-27 -28 0
-27 -29 0
-27 -30 0
-28 -29 0
-28 -30 0
-29 -30 0
-32 -33 0
-32 -34 0
-32 -35 0
-33 -34 0
-33 -35 0
-34 -35 0
-38 -39 0
-38 -40 0
-39 -40 0
-41 -42 0
-41 -43 0
-41 -44 0
-41 -45 0
-42 -43 0
-42 -44 0
-42 -45 0
-43 -44 0
-43 -45 0
-44 -45 0
-46 -47 0
-46 -48 0
-46 -49 0
-46 -50 0
-47 -48 0
-47 -49 0
-47 -50 0
-48 -49 0
-48 -50 0
-49 -50 0
-51 -52 0
-51 -53 0
-51 -54 0
-51 -55 0
-52 -53 0
-52 -54 0
-52 -55 0
-53 -54 0
-53 -55 0
-54 -55 0
-56 -57 0
-56 -58 0
-57 -58 0
-61 -62 0
-61 -63 0
-61 -64 0
-61 -65 0
-62 -63 0
-62 -64 0
-62 -65 0
-63 -64 0
-63 -65 0
-64 -65 0
-66 -67 0
-66 -68 0
-66 -69 0
-66 -70 0
-67 -68 0
-67 -69 0
-67 -70 0
-68 -69 0
-68 -70 0
-69 -70 0
-71 -72 0
-71 -74 0
-71 -75 0
-72 -74 0
-72 -75 0
-74 -75 0
-76 -77 0
-76 -78 0
-76 -79 0
-77 -78 0
-77 -79 0
-78 -79 0
-82 -83 0
-82 -85 0
-83 -85 0
-86 -87 0
-86 -88 0
-86 -89 0
-86 -90 0
-87 -88 0
-87 -89 0
-87 -90 0
-88 -89 0
-88 -90 0
-89 -90 0
-91 -92 0
-91 -93 0
-91 -94 0
-91 -95 0
-92 -93 0
-92 -94 0
-92 -95 0
-93 -94 0
-93 -95 0
-94 -95 0
-96 -97 0
-96 -98 0
-96 -99 0
-97 -98 0
-97 -99 0
-98 -99 0
-101 -102 0
-101 -104 0
-101 -105 0
-102 -104 0
-102 -105 0
-104 -105 0
-106 -107 0
-106 -109 0
-106 -110 0
-107 -109 0
-107 -110 0
-109 -110 0
-113 -114 0
-113 -115 0
-114 -115 0
-116 -117 0
-116 -119 0
-116 -120 0
-117 -119 0
-117 -120 0
-119 -120 0
-121 -123 0
-121 -125 0
-123 -125 0
-126 -127 0
-126 -128 0
-126 -130 0
-127 -128 0
-127 -130 0
-128 -130 0
-131 -132 0
-131 -133 0
-131 -134 0
-132 -133 0
-132 -134 0
-133 -134 0
-136 -137 0
-136 -138 0
-137 -138 0
-141 -142 0
-141 -143 0
-141 -145 0
-142 -143 0
-142 -145 0
-143 -145 0
-146 -147 0
-146 -148 0
-146 -149 0
-146 -150 0
-147 -148 0
-147 -149 0
-147 -150 0
-148 -149 0
-148 -150 0
-149 -150 0
-151 -152 0
-151 -153 0
-151 -154 0
-151 -155 0
-152 -153 0
-152 -154 0
-152 -155 0
-153 -154 0
-153 -155 0
-154 -155 0
-156 -158 0
-156 -159 0
-156 -160 0
-158 -159 0
-158 -160 0
-159 -160 0
-161 -163 0
-161 -165 0
-163 -165 0
-167 -168 0
-167 -169 0
-167 -170 0
-168 -169 0
-168 -170 0
-169 -170 0
-171 -172 0
-171 -173 0
-171 -174 0
-172 -173 0
-172 -174 0
-173 -174 0
-176 -177 0
-176 -178 0
-176 -179 0
-176 -180 0
-177 -178 0
-177 -179 0
-177 -180 0
-178 -179 0
-178 -180 0
-179 -180 0
